106154.0
6,10,13,23,27,35,36,37,38,48,53,60,102,121,134,146,147,151,216,236,245,249,254,262,269,273,281,347,362,379,382,419,421,426,463,469,473,476,480,493,494,497,573,585,598,599,603,610,612,657,672,703,708,732,736,743,770,775,786,822,824,830,845,849,855,886,887,914,917,937,945,967,987,989,992,1003,1031,1034,1042,1043,1048,1057,1096,1099,1103,1114,1117,1137,1138,1143,1153,1158,1168,1239,1246,1248,1260,1300,1322,1333,1343,1344,1353,1361,1394,1431,1433,1441,1457,1463,1466,1472,1473,1475,1485,1497,1499,1507,1532,1544,1547,1548,1549,1567,1581,1591,1604,1615,1617,1630,1654,1664,1666,1672,1690,1692,1713,1716,1729,1731,1825,1849,1861,1864,1873,1882,1890,1900,1904,1906,1915,1919,1934,1953,1989,1997